p cnf 466 16
-2997 -3011 -3013 -3429 -3432 -3993 -4016 -4018 -4035 -4057 -4065 -4070 -4071 -4074 -4075 -4076 -4098 -4099 -4112 -4113 -4114 -4117 -4118 -4119 -4123 -4124 -4125 -4128 -4132 -4133 -4136 -4137 -4155 -4156 -4158 -4161 -4162 -4163 -4164 -5100 -5101 -5131 -5132 -5134 -5156 -5183 -5185 -5189 -5197 -5202 -5203 -5208 -5209 -5210 -5216 -5224 -5247 -5248 -5269 -5270 -5271 -5272 -5276 -5277 -5278 -5285 -5286 -5288 -5294 -5299 -5301 -5303 -5304 -5309 -5310 -5311 -5341 -5346 -5347 -5350 -5351 -5356 -5357 -5358 -5359 -5361 -5362 -5504 -5505 -5506 -5512 -5525 -5531 0
-2997 -3011 -3013 -3429 -3432 -3993 -4016 -4018 -4035 -4057 -4065 -4070 -4071 -4074 -4075 -4076 -4098 -4099 -4112 -4113 -4114 -4117 -4118 -4119 -4123 -4124 -4125 -4128 -4132 -4133 -4136 -4137 -4155 -4156 -4158 -4161 -4162 -4163 -4164 -5100 -5101 -5131 -5132 -5134 -5156 -5183 -5185 -5189 -5197 -5202 -5203 -5208 -5209 -5210 -5216 -5224 -5247 -5248 -5269 -5270 -5271 -5272 -5276 -5277 -5278 -5285 -5286 -5288 -5294 -5299 -5301 -5303 -5304 -5309 -5310 -5311 -5334 -5341 -5346 -5347 -5350 -5351 -5357 -5358 -5359 -5361 -5362 -5504 -5505 -5506 -5512 -5525 -5531 0
-53 -95 -282 -317 -329 -330 -331 -332 -358 -359 -375 -462 -923 -1002 -1318 -1324 -1325 -1326 -1363 -1418 -1514 -2020 -2130 -2141 -2142 -2143 -2145 -2219 -2227 -2230 -2235 -2250 -2345 -2730 -2738 -2739 -2740 -2741 -2742 -2743 -2986 -2987 -2988 -2990 -3017 -3019 -3042 -3437 -3438 -3485 -3493 -3577 -3645 -3984 -4002 -4003 -4004 -4005 -4009 -4010 -4011 -4012 -4013 -4014 -4144 -4152 -4154 -4163 -4301 -4745 -5087 -5111 -5112 -5113 -5114 -5115 -5116 -5117 -5122 -5123 -5124 -5125 -5126 -5127 -5128 -5129 -5321 -5322 -5324 -5337 -5339 -5342 -5345 -5356 -5360 -5361 -5491 -5498 -5513 -5530 0
-53 -95 -282 -317 -329 -330 -331 -332 -358 -359 -375 -462 -879 -906 -909 -923 -1002 -1318 -1324 -1325 -1326 -1363 -1418 -1514 -2020 -2130 -2141 -2142 -2143 -2145 -2219 -2227 -2230 -2235 -2250 -2345 -2730 -2738 -2739 -2740 -2741 -2742 -2743 -2986 -2987 -2988 -2990 -3017 -3019 -3042 -3437 -3438 -3485 -3493 -3577 -3645 -3984 -4002 -4003 -4004 -4005 -4009 -4010 -4011 -4012 -4013 -4014 -4144 -4152 -4154 -4163 -4301 -4745 -5087 -5111 -5112 -5113 -5114 -5115 -5116 -5117 -5122 -5123 -5124 -5125 -5126 -5127 -5128 -5129 -5321 -5322 -5324 -5337 -5339 -5342 -5345 -5356 -5360 -5361 -5491 -5513 -5530 0
-53 -95 -282 -317 -329 -330 -331 -332 -358 -359 -375 -462 -835 -862 -870 -879 -906 -909 -923 -1002 -1318 -1324 -1325 -1326 -1363 -1418 -1514 -2020 -2130 -2141 -2142 -2143 -2145 -2219 -2227 -2230 -2235 -2250 -2345 -2730 -2738 -2739 -2740 -2741 -2742 -2743 -2986 -2987 -2988 -2990 -3017 -3019 -3042 -3437 -3438 -3485 -3493 -3577 -3645 -3984 -4002 -4003 -4004 -4005 -4009 -4010 -4011 -4012 -4013 -4014 -4144 -4152 -4154 -4163 -4301 -4745 -5087 -5111 -5112 -5113 -5114 -5115 -5116 -5117 -5122 -5123 -5124 -5125 -5126 -5127 -5128 -5129 -5321 -5322 -5324 -5337 -5339 -5342 -5345 -5356 -5360 -5361 -5491 -5513 0
-53 -95 -282 -314 -317 -329 -330 -331 -332 -359 -375 -462 -835 -862 -863 -864 -870 -879 -906 -909 -923 -1002 -1318 -1324 -1325 -1326 -1356 -1357 -1363 -1418 -1514 -2020 -2130 -2141 -2142 -2143 -2145 -2216 -2219 -2220 -2222 -2227 -2230 -2235 -2250 -2345 -2730 -2738 -2739 -2740 -2741 -2742 -2743 -2797 -2798 -2986 -2987 -2988 -2990 -3017 -3019 -3042 -3437 -3438 -3439 -3485 -3493 -3577 -3645 -3984 -4002 -4003 -4004 -4005 -4009 -4010 -4011 -4012 -4013 -4014 -4144 -4146 -4147 -4154 -4163 -4301 -4745 -5087 -5111 -5112 -5113 -5114 -5115 -5116 -5117 -5122 -5123 -5124 -5125 -5126 -5127 -5128 -5129 -5315 -5321 -5322 -5324 -5325 -5326 -5329 -5330 -5331 -5337 -5345 -5356 -5360 -5361 -5491 -5513 0
-53 -95 -282 -314 -317 -329 -330 -331 -332 -359 -375 -462 -835 -862 -863 -864 -870 -879 -904 -906 -909 -923 -1002 -1318 -1324 -1325 -1326 -1356 -1357 -1363 -1418 -1514 -2020 -2130 -2141 -2142 -2143 -2145 -2217 -2219 -2220 -2222 -2227 -2230 -2235 -2250 -2345 -2730 -2738 -2739 -2740 -2741 -2742 -2743 -2797 -2798 -2980 -2986 -2987 -2988 -2990 -3017 -3019 -3042 -3437 -3438 -3439 -3485 -3493 -3577 -3645 -3984 -4002 -4003 -4004 -4005 -4009 -4010 -4011 -4012 -4013 -4014 -4144 -4146 -4147 -4154 -4163 -4301 -4745 -5087 -5111 -5112 -5113 -5114 -5115 -5116 -5117 -5122 -5123 -5124 -5125 -5126 -5127 -5128 -5129 -5318 -5321 -5322 -5324 -5325 -5326 -5329 -5330 -5331 -5337 -5345 -5356 -5360 -5361 -5491 -5513 0
-53 -95 -282 -314 -317 -329 -330 -331 -332 -359 -375 -462 -835 -862 -863 -864 -870 -879 -904 -906 -909 -923 -1002 -1318 -1324 -1325 -1326 -1354 -1356 -1357 -1363 -1418 -1514 -2020 -2130 -2141 -2142 -2143 -2145 -2217 -2219 -2220 -2222 -2227 -2230 -2235 -2250 -2345 -2730 -2738 -2739 -2740 -2741 -2742 -2743 -2795 -2797 -2798 -2986 -2987 -2988 -2990 -3017 -3019 -3042 -3437 -3438 -3439 -3485 -3493 -3577 -3645 -3984 -4002 -4003 -4004 -4005 -4009 -4010 -4011 -4012 -4013 -4014 -4140 -4144 -4146 -4147 -4154 -4163 -4301 -4745 -5087 -5111 -5112 -5113 -5114 -5115 -5116 -5117 -5122 -5123 -5124 -5125 -5126 -5127 -5128 -5129 -5316 -5318 -5321 -5322 -5324 -5325 -5326 -5329 -5330 -5331 -5337 -5345 -5356 -5360 -5361 -5491 -5513 0
-53 -95 -277 -282 -314 -317 -320 -329 -330 -331 -332 -359 -375 -462 -835 -862 -864 -870 -877 -879 -904 -906 -909 -923 -1002 -1363 -1418 -1514 -2020 -2126 -2127 -2130 -2141 -2142 -2143 -2145 -2217 -2219 -2222 -2227 -2230 -2235 -2250 -2345 -2730 -2738 -2739 -2740 -2741 -2742 -2743 -2795 -2797 -2798 -2984 -2986 -2987 -2988 -2990 -3017 -3019 -3042 -3407 -3437 -3438 -3439 -3485 -3493 -3577 -3645 -3977 -3978 -3984 -4002 -4003 -4004 -4005 -4009 -4010 -4011 -4012 -4013 -4014 -4140 -4144 -4146 -4147 -4154 -4163 -4301 -4745 -5075 -5076 -5077 -5087 -5111 -5112 -5113 -5114 -5115 -5116 -5117 -5122 -5123 -5124 -5125 -5126 -5127 -5128 -5129 -5316 -5318 -5321 -5322 -5324 -5325 -5329 -5330 -5331 -5337 -5345 -5356 -5360 -5361 -5491 -5501 -5512 -5513 -5522 -5528 0
-53 -95 -277 -282 -314 -317 -320 -329 -330 -331 -332 -359 -375 -462 -835 -862 -864 -870 -877 -879 -904 -906 -909 -923 -1002 -1363 -1418 -1514 -2020 -2126 -2127 -2130 -2141 -2142 -2143 -2145 -2217 -2219 -2222 -2227 -2230 -2235 -2250 -2345 -2730 -2738 -2739 -2740 -2741 -2742 -2743 -2797 -2798 -2980 -2984 -2986 -2987 -2988 -2990 -3017 -3019 -3042 -3407 -3437 -3438 -3439 -3485 -3493 -3577 -3645 -3977 -3978 -3984 -4002 -4003 -4004 -4005 -4009 -4010 -4011 -4012 -4013 -4014 -4144 -4146 -4147 -4154 -4163 -4301 -4745 -5075 -5076 -5077 -5087 -5111 -5112 -5113 -5114 -5115 -5116 -5117 -5122 -5123 -5124 -5125 -5126 -5127 -5128 -5129 -5318 -5321 -5322 -5324 -5325 -5329 -5330 -5331 -5337 -5345 -5356 -5360 -5361 -5491 -5501 -5512 -5513 -5522 -5528 0
-274 -281 -282 -290 -291 -292 -293 -305 -307 -308 -312 -318 -320 -325 -338 -339 -349 -354 -355 -375 -462 -827 -834 -835 -854 -859 -860 -861 -864 -869 -870 -1363 -1418 -1514 -2020 -2117 -2118 -2121 -2126 -2127 -2130 -2138 -2139 -2141 -2142 -2144 -2196 -2197 -2201 -2202 -2204 -2212 -2213 -2214 -2215 -2217 -2218 -2222 -2234 -2235 -2250 -2345 -2724 -2725 -2726 -2727 -2730 -2736 -2737 -2738 -2739 -2740 -2741 -2754 -2786 -2787 -2788 -2792 -2793 -2979 -2980 -2981 -2984 -2987 -2988 -2989 -3008 -3010 -3011 -3014 -3015 -3019 -3042 -3403 -3407 -3418 -3425 -3432 -3433 -3436 -3437 -3438 -3485 -3493 -3966 -3967 -3968 -3969 -3970 -3972 -3977 -3984 -3997 -3998 -3999 -4000 -4002 -4003 -4004 -4005 -4041 -4042 -4043 -4044 -4045 -4047 -4049 -4107 -4108 -4109 -4115 -4116 -4117 -4118 -4120 -4122 -4123 -4124 -4125 -4133 -4134 -4136 -4138 -4143 -4301 -4745 -5054 -5055 -5056 -5057 -5058 -5061 -5064 -5075 -5076 -5087 -5105 -5106 -5107 -5108 -5109 -5111 -5112 -5113 -5114 -5115 -5118 -5166 -5167 -5168 -5169 -5170 -5172 -5174 -5262 -5263 -5264 -5265 -5273 -5274 -5275 -5276 -5277 -5279 -5280 -5281 -5284 -5285 -5286 -5287 -5288 -5289 -5303 -5304 -5305 -5307 -5308 -5309 -5310 -5312 -5313 -5318 -5320 -5321 -5323 -5330 -5359 -5360 -5491 -5493 -5496 -5498 -5502 -5503 -5507 -5511 -5512 -5513 -5522 -5528 0
-274 -281 -282 -285 -286 -290 -291 -292 -293 -305 -307 -308 -312 -318 -320 -325 -333 -338 -339 -349 -354 -355 -375 -462 -827 -834 -835 -836 -854 -859 -860 -861 -864 -869 -870 -1363 -1418 -1514 -2020 -2117 -2118 -2121 -2126 -2127 -2130 -2138 -2139 -2141 -2142 -2144 -2148 -2196 -2197 -2201 -2202 -2204 -2212 -2213 -2214 -2215 -2217 -2218 -2222 -2234 -2235 -2250 -2345 -2724 -2725 -2726 -2727 -2730 -2736 -2737 -2738 -2739 -2740 -2741 -2747 -2749 -2754 -2786 -2787 -2788 -2792 -2793 -2979 -2980 -2981 -2984 -2987 -2988 -2989 -2992 -3008 -3010 -3011 -3014 -3015 -3019 -3042 -3403 -3407 -3412 -3418 -3425 -3432 -3433 -3437 -3438 -3485 -3493 -3966 -3967 -3968 -3969 -3970 -3972 -3977 -3984 -3997 -3998 -3999 -4000 -4002 -4003 -4004 -4005 -4021 -4022 -4023 -4025 -4026 -4041 -4042 -4043 -4044 -4045 -4047 -4049 -4107 -4108 -4109 -4115 -4116 -4117 -4118 -4120 -4122 -4123 -4124 -4125 -4133 -4134 -4136 -4138 -4143 -4301 -4745 -5054 -5055 -5056 -5057 -5058 -5061 -5064 -5075 -5076 -5087 -5105 -5106 -5107 -5108 -5109 -5111 -5112 -5113 -5114 -5115 -5118 -5137 -5138 -5139 -5140 -5142 -5143 -5166 -5167 -5168 -5169 -5170 -5172 -5174 -5262 -5263 -5264 -5265 -5273 -5274 -5275 -5276 -5277 -5279 -5280 -5281 -5284 -5285 -5286 -5287 -5288 -5289 -5303 -5304 -5305 -5307 -5308 -5309 -5310 -5312 -5313 -5318 -5320 -5321 -5323 -5330 -5359 -5360 -5491 -5493 -5496 -5498 -5502 -5503 -5507 -5511 -5512 -5513 -5522 -5528 0
-274 -281 -282 -285 -286 -290 -291 -292 -293 -294 -295 -305 -307 -308 -312 -320 -325 -333 -338 -339 -349 -354 -355 -375 -462 -834 -835 -836 -839 -854 -859 -860 -861 -869 -870 -1363 -1418 -1514 -2020 -2118 -2121 -2126 -2127 -2130 -2138 -2139 -2141 -2142 -2144 -2148 -2157 -2196 -2197 -2201 -2202 -2204 -2213 -2214 -2215 -2217 -2218 -2234 -2235 -2250 -2345 -2724 -2725 -2726 -2727 -2730 -2736 -2737 -2739 -2740 -2741 -2747 -2749 -2753 -2754 -2756 -2786 -2787 -2788 -2792 -2793 -2979 -2980 -2981 -2984 -2987 -2988 -2989 -2992 -2996 -2997 -2998 -3008 -3010 -3011 -3014 -3015 -3019 -3042 -3403 -3407 -3418 -3425 -3432 -3433 -3437 -3438 -3485 -3493 -3967 -3968 -3969 -3970 -3972 -3977 -3984 -3997 -3998 -3999 -4000 -4003 -4004 -4005 -4021 -4022 -4023 -4025 -4026 -4038 -4039 -4040 -4041 -4042 -4043 -4044 -4045 -4047 -4049 -4051 -4052 -4054 -4107 -4108 -4109 -4115 -4116 -4117 -4118 -4120 -4122 -4123 -4124 -4125 -4133 -4134 -4136 -4138 -4143 -4301 -4745 -5055 -5056 -5057 -5058 -5061 -5064 -5075 -5076 -5087 -5105 -5106 -5107 -5108 -5109 -5112 -5113 -5114 -5115 -5118 -5137 -5138 -5139 -5140 -5142 -5143 -5160 -5161 -5163 -5164 -5166 -5167 -5168 -5169 -5170 -5172 -5174 -5176 -5177 -5178 -5180 -5262 -5263 -5264 -5265 -5273 -5274 -5275 -5276 -5277 -5279 -5280 -5281 -5284 -5285 -5286 -5287 -5288 -5289 -5303 -5304 -5305 -5308 -5309 -5310 -5312 -5313 -5318 -5320 -5321 -5323 -5359 -5360 -5491 -5494 -5496 -5498 -5502 -5503 -5507 -5511 -5512 -5513 -5522 0
-274 -281 -282 -285 -286 -290 -291 -292 -293 -294 -295 -305 -307 -308 -312 -325 -333 -338 -339 -349 -350 -351 -354 -355 -375 -462 -834 -835 -836 -839 -859 -860 -861 -869 -870 -1418 -1514 -2020 -2118 -2121 -2127 -2130 -2138 -2139 -2141 -2142 -2144 -2148 -2157 -2196 -2197 -2199 -2200 -2201 -2204 -2213 -2214 -2215 -2217 -2218 -2234 -2235 -2250 -2345 -2724 -2725 -2726 -2727 -2730 -2736 -2737 -2739 -2740 -2741 -2747 -2749 -2753 -2756 -2784 -2786 -2787 -2788 -2792 -2979 -2980 -2981 -2987 -2988 -2989 -2992 -2996 -2997 -2998 -3008 -3009 -3011 -3014 -3015 -3019 -3042 -3403 -3407 -3418 -3425 -3432 -3433 -3437 -3438 -3485 -3493 -3967 -3968 -3969 -3970 -3972 -3984 -3997 -3998 -3999 -4000 -4003 -4004 -4005 -4021 -4022 -4023 -4025 -4026 -4038 -4039 -4041 -4042 -4043 -4044 -4045 -4049 -4051 -4052 -4054 -4107 -4108 -4109 -4111 -4112 -4113 -4115 -4116 -4117 -4118 -4120 -4122 -4123 -4124 -4125 -4133 -4136 -4138 -4143 -4301 -4745 -5055 -5056 -5057 -5058 -5061 -5064 -5076 -5087 -5105 -5106 -5107 -5108 -5109 -5112 -5113 -5114 -5115 -5118 -5137 -5138 -5139 -5140 -5142 -5143 -5160 -5161 -5163 -5166 -5167 -5168 -5169 -5170 -5174 -5176 -5177 -5178 -5180 -5262 -5263 -5264 -5265 -5267 -5268 -5269 -5270 -5271 -5273 -5274 -5275 -5276 -5277 -5280 -5281 -5284 -5285 -5286 -5287 -5288 -5289 -5303 -5304 -5308 -5309 -5310 -5312 -5313 -5318 -5320 -5321 -5323 -5359 -5360 -5491 -5494 -5496 -5498 -5502 -5503 -5507 -5511 -5512 -5513 -5519 -5522 -5529 0
-338 -339 -340 -350 -351 -352 -354 -355 -375 -462 -835 -839 -845 -846 -859 -860 -861 -869 -870 -1418 -1514 -2020 -2118 -2121 -2127 -2130 -2141 -2142 -2144 -2157 -2173 -2174 -2197 -2199 -2200 -2201 -2204 -2213 -2214 -2215 -2217 -2218 -2234 -2235 -2250 -2345 -2724 -2725 -2726 -2727 -2730 -2739 -2740 -2741 -2753 -2756 -2770 -2771 -2784 -2785 -2786 -2787 -2788 -2792 -2794 -2800 -2808 -2979 -2980 -2981 -2987 -2988 -2989 -2996 -2997 -2998 -3008 -3009 -3011 -3014 -3015 -3019 -3042 -3403 -3407 -3425 -3432 -3433 -3436 -3485 -3493 -3967 -3968 -3969 -3970 -3972 -3984 -4003 -4004 -4005 -4038 -4039 -4041 -4042 -4044 -4045 -4046 -4049 -4051 -4054 -4080 -4082 -4108 -4111 -4112 -4113 -4114 -4115 -4116 -4117 -4118 -4119 -4120 -4122 -4123 -4124 -4125 -4133 -4136 -4137 -4138 -4142 -4151 -4164 -4301 -4745 -5055 -5056 -5057 -5058 -5061 -5064 -5076 -5087 -5112 -5113 -5114 -5115 -5118 -5160 -5161 -5163 -5166 -5167 -5169 -5170 -5171 -5174 -5176 -5177 -5180 -5214 -5215 -5216 -5219 -5263 -5264 -5267 -5268 -5269 -5270 -5271 -5272 -5273 -5274 -5275 -5276 -5277 -5278 -5280 -5281 -5284 -5285 -5286 -5287 -5288 -5289 -5303 -5304 -5308 -5309 -5310 -5311 -5312 -5313 -5318 -5319 -5320 -5338 -5359 -5360 -5362 -5491 -5494 -5498 -5502 -5503 -5505 -5507 -5511 -5512 -5513 -5519 -5522 -5529 0
-338 -339 -340 -350 -351 -352 -354 -355 -375 -462 -835 -839 -846 -859 -860 -861 -869 -870 -1418 -1514 -2020 -2118 -2127 -2130 -2141 -2142 -2144 -2157 -2174 -2189 -2197 -2199 -2200 -2201 -2204 -2213 -2214 -2215 -2217 -2218 -2234 -2235 -2250 -2345 -2724 -2725 -2727 -2730 -2739 -2740 -2756 -2770 -2771 -2779 -2781 -2784 -2785 -2786 -2787 -2788 -2792 -2794 -2800 -2808 -2979 -2980 -2987 -2988 -2989 -2996 -2997 -2998 -3008 -3011 -3014 -3015 -3019 -3042 -3403 -3407 -3425 -3432 -3436 -3485 -3493 -3967 -3968 -3970 -3972 -3984 -4003 -4004 -4038 -4041 -4042 -4044 -4045 -4046 -4049 -4051 -4054 -4080 -4082 -4096 -4097 -4098 -4099 -4103 -4108 -4111 -4112 -4113 -4114 -4115 -4116 -4117 -4118 -4119 -4120 -4122 -4123 -4124 -4125 -4133 -4136 -4137 -4138 -4142 -4151 -4164 -4301 -5055 -5056 -5058 -5061 -5076 -5087 -5112 -5113 -5114 -5118 -5160 -5161 -5166 -5167 -5169 -5170 -5171 -5174 -5176 -5177 -5180 -5214 -5216 -5219 -5243 -5244 -5245 -5246 -5247 -5248 -5252 -5253 -5263 -5264 -5267 -5268 -5269 -5270 -5271 -5272 -5273 -5274 -5275 -5276 -5277 -5278 -5280 -5281 -5284 -5285 -5286 -5288 -5289 -5303 -5304 -5308 -5309 -5310 -5311 -5312 -5313 -5318 -5319 -5320 -5338 -5359 -5360 -5362 -5491 -5494 -5498 -5502 -5503 -5505 -5507 -5511 -5512 -5513 -5522 -5529 0
